param NumProducts := 4;

param: 		UnitProfit UnitLabor UnitRawMaterials:=
	1	25		4		3
	2	30		3		4.5
	3	37		5		6
	4	45		3.5		4;		

param MaxLabor := 100;
param MaxRawMaterials := 100;
param Prod3Min := 5;
param M := 40;
